\ENCODING=ISO-8859-1
\Problem name: IloCplex

Minimize
 obj1: x46
Subject To
 c1:  - 850 x1 + x2 >= 0
 c2:  - 2000 x1 + x2 <= 0
 c3:  - x1 + x3 + x4 >= 0
 c4:  - 1250 x5 + x6 >= 0
 c5:  - 1750 x5 + x6 <= 0
 c6:  - x5 + x7 + x8 >= 0
 c7:  - 1500 x9 + x10 >= 0
 c8:  - 4000 x9 + x10 <= 0
 c9:  - x9 + x11 + x12 >= 0
 c10: x2 + x6 + x10 >= 15000
 c11: 2000 x1 + 1750 x5 + 4000 x9 >= 17250
 c12: - 850 x13 + x14 >= 0
 c13: - 2000 x13 + x14 <= 0
 c14: x1 - x13 + x15 >= 0
 c15: - 1250 x16 + x17 >= 0
 c16: - 1750 x16 + x17 <= 0
 c17: x5 - x16 + x18 >= 0
 c18: - 1500 x19 + x20 >= 0
 c19: - 4000 x19 + x20 <= 0
 c20: x9 - x19 + x21 >= 0
 c21: x14 + x17 + x20 >= 30000
 c22: 2000 x13 + 1750 x16 + 4000 x19 >= 34500
 c23: - 850 x22 + x23 >= 0
 c24: - 2000 x22 + x23 <= 0
 c25: x13 - x22 + x24 >= 0
 c26: - 1250 x25 + x26 >= 0
 c27: - 1750 x25 + x26 <= 0
 c28: x16 - x25 + x27 >= 0
 c29: - 1500 x28 + x29 >= 0
 c30: - 4000 x28 + x29 <= 0
 c31: x19 - x28 + x30 >= 0
 c32: x23 + x26 + x29 >= 25000
 c33: 2000 x22 + 1750 x25 + 4000 x28 >= 28750
 c34: - 850 x31 + x32 >= 0
 c35: - 2000 x31 + x32 <= 0
 c36: x22 - x31 + x33 >= 0
 c37: - 1250 x34 + x35 >= 0
 c38: - 1750 x34 + x35 <= 0
 c39: x25 - x34 + x36 >= 0
 c40: - 1500 x37 + x38 >= 0
 c41: - 4000 x37 + x38 <= 0
 c42: x28 - x37 + x39 >= 0
 c43: x32 + x35 + x38 >= 40000
 c44: 2000 x31 + 1750 x34 + 4000 x37 >= 46000
 c45: - 850 x3 + x40 >= 0
 c46: - 2000 x3 + x40 <= 0
 c47: - x3 + x31 + x41 >= 0
 c48: - 1250 x7 + x42 >= 0
 c49: - 1750 x7 + x42 <= 0
 c50: - x7 + x34 + x43 >= 0
 c51: - 1500 x11 + x44 >= 0
 c52: - 4000 x11 + x44 <= 0
 c53: - x11 + x37 + x45 >= 0
 c54: x40 + x42 + x44 >= 27000
 c55: 2000 x3 + 1750 x7 + 4000 x11 >= 31050
 i1: x46 = 1 <-> 12 x2 - 4200 x1 + 2000 x4 + 7.79999971389771 x6 + 5850 x5
     + 1000 x8 + 18 x10 - 9000 x9 + 500 x12 + 6 x14 - 2100 x13 + 2000 x15
     + 3.89999985694885 x17 + 2925 x16 + 1000 x18 + 9 x20 - 4500 x19 + 500 x21
     + 12 x23 - 4200 x22 + 2000 x24 + 7.79999971389771 x26 + 5850 x25
     + 1000 x27 + 18 x29 - 9000 x28 + 500 x30 + 6 x32 - 2100 x31 + 2000 x33
     + 3.89999985694885 x35 + 2925 x34 + 1000 x36 + 9 x38 - 4500 x37 + 500 x39
     + 12 x40 - 4200 x3 + 2000 x41 + 7.79999971389771 x42 + 5850 x7 + 1000 x43
     + 18 x44 - 9000 x11 + 500 x45 =< 988540
Bounds
 0 <= x1 <= 12
      x2 >= 2
 0 <= x3 <= 12
 0 <= x4 <= 12
 0 <= x5 <= 10
      x6 >= 2
 0 <= x7 <= 10
 0 <= x8 <= 10
 0 <= x9 <= 5
      x10 >= 2
 0 <= x11 <= 5
 0 <= x12 <= 5
 0 <= x13 <= 12
      x14 >= 2
 0 <= x15 <= 12
 0 <= x16 <= 10
      x17 >= 2
 0 <= x18 <= 10
 0 <= x19 <= 5
      x20 >= 2
 0 <= x21 <= 5
 0 <= x22 <= 12
      x23 >= 2
 0 <= x24 <= 12
 0 <= x25 <= 10
      x26 >= 2
 0 <= x27 <= 10
 0 <= x28 <= 5
      x29 >= 2
 0 <= x30 <= 5
 0 <= x31 <= 12
      x32 >= 2
 0 <= x33 <= 12
 0 <= x34 <= 10
      x35 >= 2
 0 <= x36 <= 10
 0 <= x37 <= 5
      x38 >= 2
 0 <= x39 <= 5
      x40 >= 2
 0 <= x41 <= 12
      x42 >= 2
 0 <= x43 <= 10
      x44 >= 2
 0 <= x45 <= 5
 0 <= x46 <= 1
Binaries
 x46 
Generals
 x1  x3  x4  x5  x7  x8  x9  x11  x12  x13  x15  x16  x18  x19  x21  x22  x24 
 x25  x27  x28  x30  x31  x33  x34  x36  x37  x39  x41  x43  x45 
End
